0 9781.47
1 9777.08
2 9777.08
3 9601.79
4 9496.86
5 9446.11
6 9446.11
7 9392.68
8 9242.56
9 9242.56
10 9242.56
11 9241.94
12 9146.62
13 9142.09
14 9138.58
15 9083.20
16 9083.20
17 8982.96
18 8846.62
19 8846.62
20 8833.28
21 8833.28
22 8833.28
23 8832.55
24 8761.64
25 8611.72
26 8611.72
27 8567.31
28 8521.88
29 8521.88
30 8521.88
31 8457.00
32 8457.00
33 8457.00
34 8457.00
35 8457.00
36 8457.00
37 8432.30
38 8424.58
39 8335.64
40 8334.97
41 8319.02
42 8319.02
43 8277.02
44 8277.02
45 8277.02
46 8188.36
47 8188.36
48 8156.65
49 8156.65
50 8061.47
51 8061.47
52 8061.47
53 8061.47
54 8061.47
55 8061.47
56 7985.60
57 7985.60
58 7985.60
59 7985.60
60 7985.60
61 7985.60
62 7985.60
63 7985.60
64 7985.60
65 7985.60
66 7985.60
67 7985.60
68 7985.60
69 7985.60
70 7985.60
71 7985.60
72 7818.51
73 7818.51
74 7818.51
75 7818.51
76 7818.51
77 7818.51
78 7818.51
79 7818.51
80 7818.51
81 7760.83
82 7756.22
83 7756.22
84 7756.22
85 7756.22
86 7756.22
87 7756.22
88 7756.22
89 7756.22
90 7756.22
91 7756.22
92 7756.22
93 7756.22
94 7756.22
95 7756.22
96 7756.22
97 7756.22
98 7756.22
99 7756.22
100 7756.22
101 7756.22
102 7666.82
103 7638.76
104 7638.76
105 7638.76
106 7638.76
107 7638.76
108 7638.19
109 7638.19
110 7638.19
111 7638.19
112 7638.19
113 7638.19
114 7614.99
115 7614.99
116 7614.99
117 7614.99
118 7614.99
119 7612.35
120 7612.35
121 7612.35
122 7579.58
123 7579.58
124 7579.58
125 7511.13
126 7511.13
127 7511.13
128 7511.13
129 7511.13
130 7511.13
131 7511.13
132 7511.13
133 7511.13
134 7511.13
135 7511.13
136 7511.13
137 7511.13
138 7511.13
139 7511.13
140 7511.13
141 7511.13
142 7511.13
143 7511.13
144 7511.13
145 7511.13
146 7511.13
147 7511.13
148 7511.13
149 7511.13
150 7511.13
151 7511.13
152 7511.13
153 7511.13
154 7511.13
155 7511.13
156 7511.13
157 7511.13
158 7511.13
159 7511.13
160 7511.13
161 7502.38
162 7502.38
163 7502.38
164 7502.38
165 7434.15
166 7434.15
167 7434.15
168 7434.15
169 7427.29
170 7427.29
171 7427.29
172 7427.29
173 7427.29
174 7427.28
175 7418.02
176 7418.02
177 7416.17
178 7416.17
179 7416.17
180 7413.65
181 7396.80
182 7396.80
183 7396.80
184 7396.80
185 7396.80
186 7396.80
187 7396.80
188 7396.80
189 7396.80
190 7396.80
191 7396.80
192 7396.80
193 7396.80
194 7396.80
195 7396.80
196 7396.80
197 7396.80
198 7396.80
199 7396.80
200 7396.80
201 7396.80
202 7396.80
203 7396.80
204 7396.80
205 7396.80
206 7396.80
207 7396.80
208 7396.80
209 7396.80
210 7396.80
211 7396.80
212 7396.80
213 7396.80
214 7396.80
215 7396.80
216 7396.80
217 7396.80
218 7396.80
219 7368.29
220 7368.29
221 7368.29
222 7368.29
223 7368.29
224 7368.29
225 7367.63
226 7367.63
227 7367.63
228 7367.63
229 7367.63
230 7367.63
231 7367.63
232 7367.63
233 7367.63
234 7367.63
235 7367.63
236 7367.63
237 7367.63
238 7367.63
239 7367.63
240 7367.63
241 7367.63
242 7367.63
243 7367.63
244 7367.63
245 7367.63
246 7367.63
247 7342.64
248 7342.64
249 7342.64
250 7342.64
251 7280.14
252 7280.14
253 7280.14
254 7280.14
255 7280.14
256 7280.14
257 7280.14
258 7280.14
259 7280.14
260 7280.14
261 7280.14
262 7280.14
263 7280.14
264 7280.14
265 7280.14
266 7280.14
267 7280.14
268 7280.14
269 7280.14
270 7280.14
271 7280.14
272 7280.14
273 7280.14
274 7280.14
275 7280.14
276 7280.14
277 7280.14
278 7238.58
279 7238.58
280 7238.58
281 7238.58
282 7238.58
283 7238.58
284 7238.58
285 7238.58
286 7238.58
287 7238.58
288 7238.58
289 7238.58
290 7238.58
291 7238.58
292 7238.58
293 7238.58
294 7145.10
295 7145.10
296 7145.10
297 7145.10
298 7145.10
299 7145.10
300 7145.10
301 7145.10
302 7145.10
303 7145.10
304 7145.10
305 7145.10
306 7145.10
307 7145.10
308 7145.10
309 7145.10
310 7145.10
311 7145.10
312 7144.66
313 7131.09
314 7131.09
315 7110.41
316 7110.41
317 7110.41
318 7110.41
319 7110.41
320 7110.41
321 7110.41
322 7070.04
323 7070.04
324 7070.04
325 7070.04
326 7046.11
327 7046.11
328 7046.11
329 7046.11
330 7046.11
331 7046.11
332 7046.11
333 7046.11
334 7046.11
335 7046.11
336 7046.11
337 7044.97
338 7044.97
339 7044.97
340 7044.97
341 7044.97
342 7044.97
343 7044.97
344 7044.97
345 7044.97
346 7044.97
347 7044.97
348 7044.97
349 7044.97
350 7044.97
351 7044.97
352 7044.97
353 7044.97
354 7044.97
355 7044.97
356 7044.97
357 7044.97
358 7044.97
359 7044.97
360 7044.97
361 6979.93
362 6979.93
363 6979.93
364 6979.93
365 6979.93
366 6979.93
367 6979.93
368 6979.93
369 6979.93
370 6979.93
371 6979.93
372 6979.93
373 6979.93
374 6979.93
375 6979.93
376 6979.93
377 6979.93
378 6979.93
379 6979.93
380 6979.93
381 6979.93
382 6979.93
383 6979.93
384 6979.93
385 6979.93
386 6979.93
387 6954.88
388 6954.88
389 6954.88
390 6954.88
391 6954.88
392 6954.88
393 6954.88
394 6954.88
395 6954.88
396 6954.88
397 5363.77
398 5363.77
399 5363.77
400 5363.77
401 5363.77
402 5363.77
403 5363.77
404 5363.77
405 5363.77
406 5363.77
407 5363.77
408 5363.77
409 5363.77
410 5363.77
411 5363.77
412 5363.77
413 5363.77
414 5363.77
415 5363.77
416 5363.77
417 5363.77
418 5363.77
419 5363.77
420 5363.77
421 5363.77
422 5363.77
423 5363.77
424 5363.77
425 5363.77
426 5363.77
427 5363.77
428 5363.77
429 5363.77
430 5363.77
431 5363.77
432 5363.77
433 5363.77
434 5363.77
435 5363.77
436 5363.77
437 5363.77
438 5363.77
439 5363.77
440 5363.77
441 5363.77
442 5363.77
443 5363.77
444 5363.77
445 5363.77
446 5363.77
447 5363.77
448 5363.77
449 5363.77
450 5363.77
451 5363.77
452 5363.77
453 5363.77
454 5363.77
455 5363.77
456 5363.77
457 5363.77
458 5363.77
459 5363.77
460 5363.77
461 5363.77
462 5363.77
463 5363.77
464 5363.77
465 5363.77
466 5363.77
467 5363.77
468 5363.77
469 5363.77
470 5363.77
471 5363.77
472 5363.77
473 5363.77
474 5363.77
475 5363.77
476 5363.77
477 5363.77
478 5363.77
479 5363.77
480 5363.77
481 5363.77
482 5363.77
483 5363.77
484 5363.77
485 5363.77
486 5363.77
487 5363.77
488 5363.77
489 5363.77
490 5363.77
491 5363.77
492 5363.77
493 5363.77
494 5363.77
495 5363.77
496 5363.77
497 5363.77
498 5363.77
499 5363.77
500 5363.77
501 5363.77
502 5363.77
503 5363.77
504 5363.77
505 5363.77
506 5363.77
507 5363.77
508 5363.77
509 5363.77
510 5363.77
511 5363.77
512 5363.77
513 5363.77
514 5363.77
515 5363.77
516 5363.77
517 5363.77
518 5363.77
519 5363.77
520 5363.77
521 5363.77
522 5363.77
523 5363.77
524 5363.77
525 5363.77
526 5363.77
527 5363.77
528 5363.77
529 5363.77
530 5363.77
531 5363.77
532 5363.77
533 5363.77
534 5363.77
535 5363.77
536 5363.77
537 5363.77
538 5363.77
539 5363.77
540 5363.77
541 5363.77
542 5363.77
543 5363.77
544 5363.77
545 5363.77
546 5363.77
547 5363.77
548 5363.77
549 5363.77
550 5363.77
551 5363.77
552 5363.77
553 5363.77
554 5363.77
555 5363.77
556 5363.77
557 5363.77
558 5363.77
559 5363.77
560 5363.77
561 5363.77
562 5363.77
563 5363.77
564 5363.77
565 5363.77
566 5363.77
567 5363.77
568 5363.77
569 5363.77
570 5363.77
571 5363.77
572 5363.77
573 5363.77
574 5363.77
575 5363.77
576 5363.77
577 5363.77
578 5363.77
579 5363.77
580 5363.77
581 5363.77
582 5363.77
583 5363.77
584 5363.77
585 5363.77
586 5363.77
587 5363.77
588 5363.77
589 5363.77
590 5363.77
591 5363.77
592 5363.77
593 5363.77
594 5363.77
595 5363.77
596 5363.77
597 5363.77
598 5363.77
599 5363.77
600 5363.77
601 5363.77
602 5363.77
603 5363.77
604 5363.77
605 5363.77
606 5363.77
607 5363.77
608 5363.77
609 5363.77
610 5363.77
611 5363.77
612 5363.77
613 5363.77
614 5363.77
615 5363.77
616 5363.77
617 5363.77
618 5363.77
619 5363.77
620 5363.77
621 5363.77
622 5363.77
623 5363.77
624 5363.77
625 5363.77
626 5363.77
627 5363.77
628 5363.77
629 5363.77
630 5363.77
631 5363.77
632 5363.77
633 5363.77
634 5363.77
635 5363.77
636 5363.77
637 5363.77
638 5363.77
639 5363.77
640 5363.77
641 5363.77
642 5363.77
643 5363.77
644 5363.77
645 5363.77
646 5363.77
647 5363.77
648 5363.77
649 5363.77
650 5363.77
651 5363.77
652 5363.77
653 5363.77
654 5363.77
655 5363.77
656 5363.77
657 5363.77
658 5363.77
659 5363.77
660 5363.77
661 5363.77
662 5363.77
663 5363.77
664 5363.77
665 5363.77
666 5363.77
667 5363.77
668 5363.77
669 5363.77
670 5363.77
671 5363.77
672 5363.77
673 5363.77
674 5363.77
675 5363.77
676 5363.77
677 5363.77
678 5363.77
679 5363.77
680 5363.77
681 5363.77
682 5363.77
683 5363.77
684 5363.77
685 5363.77
686 5363.77
687 5363.77
688 5363.77
689 5363.77
690 5363.77
691 5363.77
692 5363.77
693 5363.77
694 5363.77
695 5363.77
696 5363.77
697 5363.77
698 5363.77
699 5363.77
700 5363.77
701 5363.77
702 5363.77
703 5363.77
704 5363.77
705 5363.77
706 5363.77
707 5363.77
708 5363.77
709 5363.77
710 5363.77
711 5363.77
712 5363.77
713 5363.77
714 5363.77
715 5363.77
716 5363.77
717 5363.77
718 5363.77
719 5363.77
720 5363.77
721 5363.77
722 5363.77
723 5363.77
724 5363.77
725 5363.77
726 5363.77
727 5363.77
728 5363.77
729 5363.77
730 5363.77
731 5363.77
732 5363.77
733 5363.77
734 5363.77
735 5363.77
736 5363.77
737 5363.77
738 5363.77
739 5363.77
740 5363.77
741 5363.77
742 5363.77
743 5363.77
744 5363.77
745 5363.77
746 5363.77
747 5363.77
748 5363.77
749 5363.77
750 5363.77
751 5363.77
752 5363.77
753 5363.77
754 5363.77
755 5363.77
756 5363.77
757 5363.77
758 5363.77
759 5363.77
760 5363.77
761 5363.77
762 5363.77
763 5363.77
764 5363.77
765 5363.77
766 5363.77
767 5363.77
768 5363.77
769 5363.77
770 5363.77
771 5363.77
772 5363.77
773 5363.77
774 5363.77
775 5363.77
776 5363.77
777 5363.77
778 5363.77
779 5363.77
780 5363.77
781 5363.77
782 5363.77
783 5363.77
784 5363.77
785 5363.77
786 5363.77
787 5363.77
788 5363.77
789 5363.77
790 5363.77
791 5363.77
792 5363.77
793 5363.77
794 5363.77
795 5363.77
796 5363.77
797 5363.77
798 5363.77
799 5363.77
800 5363.77
801 5363.77
802 5363.77
803 5363.77
804 5363.77
805 5363.77
806 5363.77
807 5363.77
808 5363.77
809 5363.77
810 5363.77
811 5363.77
812 5363.77
813 5363.77
814 5363.77
815 5363.77
816 5363.77
817 5363.77
818 5363.77
819 5363.77
820 5363.77
821 5363.77
822 5363.77
823 5363.77
824 5363.77
825 5363.77
826 5363.77
827 5363.77
828 5363.77
829 5363.77
830 5363.77
831 5363.77
832 5363.77
833 5363.77
834 5363.77
835 5363.77
836 5363.77
837 5363.77
838 5363.77
839 5363.77
840 5363.77
841 5363.77
842 5363.77
843 5363.77
844 5363.77
845 5363.77
846 5363.77
847 5363.77
848 5363.77
849 5363.77
850 5363.77
851 5363.77
852 5363.77
853 5363.77
854 5363.77
855 5363.77
856 5363.77
857 5363.77
858 5363.77
859 5363.77
860 5363.77
861 5363.77
862 5363.77
863 5363.77
864 5363.77
865 5363.77
866 5363.77
867 5363.77
868 5363.77
869 5363.77
870 5363.77
871 5363.77
872 5363.77
873 5363.77
874 5363.77
875 5363.77
876 5363.77
877 5363.77
878 5363.77
879 5363.77
880 5363.77
881 5363.77
882 5363.77
883 5363.77
884 5363.77
885 5363.77
886 5363.77
887 5363.77
888 5363.77
889 5363.77
890 5363.77
891 5363.77
892 5363.77
893 5363.77
894 5363.77
895 5363.77
896 5363.77
897 5363.77
898 5363.77
899 5363.77
900 5363.77
901 5363.77
902 5363.77
903 5363.77
904 5363.77
905 5363.77
906 5363.77
907 5363.77
908 5363.77
909 5363.77
910 5363.77
911 5363.77
912 5363.77
913 5363.77
914 5363.77
915 5363.77
916 5363.77
917 5363.77
918 5363.77
919 5363.77
920 5363.77
921 5363.77
922 5363.77
923 5363.77
924 5363.77
925 5363.77
926 5363.77
927 5363.77
928 5363.77
929 5363.77
930 5363.77
931 5363.77
932 5363.77
933 5363.77
934 5363.77
935 5363.77
936 5363.77
937 5363.77
938 5363.77
939 5363.77
940 5363.77
941 5363.77
942 5363.77
943 5363.77
944 5363.77
945 5363.77
946 5363.77
947 5363.77
948 5363.77
949 5363.77
950 5363.77
951 5363.77
952 5363.77
953 5363.77
954 5363.77
955 5363.77
956 5363.77
957 5363.77
958 5363.77
959 5363.77
960 5363.77
961 5363.77
962 5363.77
963 5363.77
964 5363.77
965 5363.77
966 5363.77
967 5363.77
968 5363.77
969 5363.77
970 5363.77
971 5363.77
972 5363.77
973 5363.77
974 5363.77
975 5363.77
976 5363.77
977 5363.77
978 5363.77
979 5363.77
980 5363.77
981 5363.77
982 5363.77
983 5363.77
984 5363.77
985 5363.77
986 5363.77
987 5363.77
988 5363.77
989 5363.77
990 5363.77
991 5363.77
992 5363.77
993 5363.77
994 5363.77
995 5363.77
996 5363.77
997 5363.77
998 5363.77
999 5363.77
8 12 5 1 0 0 